\ENCODING=ISO-8859-1
\Problem name: IloCplex

Minimize
 obj1: - X(1) - X(2) - X(3) - X(4) - X(5) - X(6) - X(7) - X(8) - X(9) - X(10)
       - X(11) - X(12) - X(13) - X(14) - X(15) - X(16) - X(17) - X(18) - X(19)
       - X(20) - X(21) - X(22) - X(23) - X(24) - X(25) - X(26) - X(27) - X(28)
       - X(29) - X(30) - X(31) - X(32) - X(33) - X(34) - X(35) - X(36) - X(37)
       - X(38) - X(39) - X(40) - X(41) - X(42) - X(43) - X(44) - X(45) - X(46)
       - X(47) - X(48) - X(49) - X(50) - X(51) - X(52) - X(53) - X(54) - X(55)
       - X(56) - X(57) - X(58) - X(59) - X(60) - X(61) - X(62) - X(63) - X(64)
       - X(65) - X(66) - X(67) - X(68) - X(69) - X(70) - X(71) - X(72) - X(73)
       - X(74) - X(75) - X(76) - X(77) - X(78) - X(79) - X(80) - X(81) - X(82)
       - X(83) - X(84) - X(85) - X(86) - X(87) - X(88) - X(89) - X(90) - X(91)
       - X(92) - X(93) - X(94) - X(95) - X(96) - X(97) - X(98) - X(99) - X(100)
       - X(101) - X(102) - X(103) - X(104) - X(105) - X(106) - X(107) - X(108)
       - X(109) - X(110) - X(111) - X(112) - X(113) - X(114) - X(115) - X(116)
       - X(117) - X(118) - X(119) - X(120) - X(121) - X(122) - X(123) - X(124)
       - X(125) - X(126) - X(127) - X(128) - X(129) - X(130) - X(131) - X(132)
       - X(133) - X(134) - X(135) - X(136) - X(137) - X(138) - X(139) - X(140)
       - X(141) - X(142) - X(143) - X(144) - X(145) - X(146) - X(147) - X(148)
       - X(149) - X(150) - X(151) - X(152) - X(153) - X(154) - X(155) - X(156)
       - X(157) - X(158) - X(159) - X(160) - X(161) - X(162) - X(163) - X(164)
       - X(165) - X(166) - X(167) - X(168) - X(169) - X(170) - X(171) - X(172)
       - X(173) - X(174) - X(175) - X(176) - X(177) - X(178) - X(179) - X(180)
       - X(181) - X(182) - X(183) - X(184) - X(185) - X(186) - X(187) - X(188)
       - X(189) - X(190) - X(191) - X(192) - X(193) - X(194) - X(195) - X(196)
       - X(197) - X(198) - X(199) - X(200) - X(201) + 1
Subject To
 c1: 150 X(1) + 100 X(2) + 100 X(3) + 100 X(4) + 100 X(5) + 100 X(6) + 100 X(7)
     + 99 X(8) + 99 X(9) + 98 X(10) + 98 X(11) + 98 X(12) + 97 X(13) + 97 X(14)
     + 96 X(15) + 96 X(16) + 95 X(17) + 94 X(18) + 93 X(19) + 93 X(20)
     + 93 X(21) + 92 X(22) + 91 X(23) + 90 X(24) + 90 X(25) + 90 X(26)
     + 89 X(27) + 89 X(28) + 88 X(29) + 88 X(30) + 88 X(31) + 88 X(32)
     + 88 X(33) + 87 X(34) + 87 X(35) + 87 X(36) + 87 X(37) + 86 X(38)
     + 86 X(39) + 85 X(40) + 85 X(41) + 85 X(42) + 84 X(43) + 84 X(44)
     + 84 X(45) + 84 X(46) + 84 X(47) + 83 X(48) + 83 X(49) + 83 X(50)
     + 82 X(51) + 81 X(52) + 81 X(53) + 80 X(54) + 80 X(55) + 79 X(56)
     + 78 X(57) + 77 X(58) + 77 X(59) + 77 X(60) + 77 X(61) + 76 X(62)
     + 76 X(63) + 75 X(64) + 75 X(65) + 75 X(66) + 75 X(67) + 74 X(68)
     + 74 X(69) + 74 X(70) + 73 X(71) + 73 X(72) + 73 X(73) + 73 X(74)
     + 72 X(75) + 71 X(76) + 70 X(77) + 70 X(78) + 70 X(79) + 70 X(80)
     + 69 X(81) + 68 X(82) + 68 X(83) + 68 X(84) + 68 X(85) + 68 X(86)
     + 67 X(87) + 67 X(88) + 67 X(89) + 67 X(90) + 66 X(91) + 66 X(92)
     + 65 X(93) + 65 X(94) + 65 X(95) + 64 X(96) + 63 X(97) + 63 X(98)
     + 63 X(99) + 63 X(100) + 63 X(101) + 63 X(102) + 62 X(103) + 62 X(104)
     + 62 X(105) + 60 X(106) + 60 X(107) + 59 X(108) + 59 X(109) + 59 X(110)
     + 58 X(111) + 57 X(112) + 56 X(113) + 55 X(114) + 55 X(115) + 54 X(116)
     + 53 X(117) + 53 X(118) + 52 X(119) + 51 X(120) + 50 X(121) + 50 X(122)
     + 50 X(123) + 50 X(124) + 49 X(125) + 48 X(126) + 48 X(127) + 48 X(128)
     + 48 X(129) + 48 X(130) + 47 X(131) + 47 X(132) + 47 X(133) + 47 X(134)
     + 46 X(135) + 46 X(136) + 45 X(137) + 44 X(138) + 44 X(139) + 43 X(140)
     + 43 X(141) + 43 X(142) + 43 X(143) + 43 X(144) + 43 X(145) + 42 X(146)
     + 42 X(147) + 41 X(148) + 41 X(149) + 39 X(150) + 39 X(151) + 38 X(152)
     + 38 X(153) + 37 X(154) + 37 X(155) + 37 X(156) + 36 X(157) + 36 X(158)
     + 36 X(159) + 35 X(160) + 34 X(161) + 34 X(162) + 34 X(163) + 34 X(164)
     + 33 X(165) + 33 X(166) + 32 X(167) + 31 X(168) + 31 X(169) + 31 X(170)
     + 31 X(171) + 30 X(172) + 30 X(173) + 30 X(174) + 30 X(175) + 30 X(176)
     + 29 X(177) + 28 X(178) + 27 X(179) + 27 X(180) + 26 X(181) + 26 X(182)
     + 26 X(183) + 25 X(184) + 25 X(185) + 25 X(186) + 25 X(187) + 25 X(188)
     + 25 X(189) + 24 X(190) + 24 X(191) + 24 X(192) + 23 X(193) + 23 X(194)
     + 22 X(195) + 21 X(196) + 21 X(197) + 21 X(198) + 20 X(199) + 20 X(200)
     + 20 X(201) <= 200
Bounds
 0 <= X(1) <= 1
 0 <= X(2) <= 1
 0 <= X(3) <= 1
 0 <= X(4) <= 1
 0 <= X(5) <= 1
 0 <= X(6) <= 1
 0 <= X(7) <= 1
 0 <= X(8) <= 1
 0 <= X(9) <= 1
 0 <= X(10) <= 1
 0 <= X(11) <= 1
 0 <= X(12) <= 1
 0 <= X(13) <= 1
 0 <= X(14) <= 1
 0 <= X(15) <= 1
 0 <= X(16) <= 1
 0 <= X(17) <= 1
 0 <= X(18) <= 1
 0 <= X(19) <= 1
 0 <= X(20) <= 1
 0 <= X(21) <= 1
 0 <= X(22) <= 1
 0 <= X(23) <= 1
 0 <= X(24) <= 1
 0 <= X(25) <= 1
 0 <= X(26) <= 1
 0 <= X(27) <= 1
 0 <= X(28) <= 1
 0 <= X(29) <= 1
 0 <= X(30) <= 1
 0 <= X(31) <= 1
 0 <= X(32) <= 1
 0 <= X(33) <= 1
 0 <= X(34) <= 1
 0 <= X(35) <= 1
 0 <= X(36) <= 1
 0 <= X(37) <= 1
 0 <= X(38) <= 1
 0 <= X(39) <= 1
 0 <= X(40) <= 1
 0 <= X(41) <= 1
 0 <= X(42) <= 1
 0 <= X(43) <= 1
 0 <= X(44) <= 1
 0 <= X(45) <= 1
 0 <= X(46) <= 1
 0 <= X(47) <= 1
 0 <= X(48) <= 1
 0 <= X(49) <= 1
 0 <= X(50) <= 1
 0 <= X(51) <= 1
 0 <= X(52) <= 1
 0 <= X(53) <= 1
 0 <= X(54) <= 1
 0 <= X(55) <= 1
 0 <= X(56) <= 1
 0 <= X(57) <= 1
 0 <= X(58) <= 1
 0 <= X(59) <= 1
 0 <= X(60) <= 1
 0 <= X(61) <= 1
 0 <= X(62) <= 1
 0 <= X(63) <= 1
 0 <= X(64) <= 1
 0 <= X(65) <= 1
 0 <= X(66) <= 1
 0 <= X(67) <= 1
 0 <= X(68) <= 1
 0 <= X(69) <= 1
 0 <= X(70) <= 1
 0 <= X(71) <= 1
 0 <= X(72) <= 1
 0 <= X(73) <= 1
 0 <= X(74) <= 1
 0 <= X(75) <= 1
 0 <= X(76) <= 1
 0 <= X(77) <= 1
 0 <= X(78) <= 1
 0 <= X(79) <= 1
 0 <= X(80) <= 1
 0 <= X(81) <= 1
 0 <= X(82) <= 1
 0 <= X(83) <= 1
 0 <= X(84) <= 1
 0 <= X(85) <= 1
 0 <= X(86) <= 1
 0 <= X(87) <= 1
 0 <= X(88) <= 1
 0 <= X(89) <= 1
 0 <= X(90) <= 1
 0 <= X(91) <= 1
 0 <= X(92) <= 1
 0 <= X(93) <= 1
 0 <= X(94) <= 1
 0 <= X(95) <= 1
 0 <= X(96) <= 1
 0 <= X(97) <= 1
 0 <= X(98) <= 1
 0 <= X(99) <= 1
 0 <= X(100) <= 1
 0 <= X(101) <= 1
 0 <= X(102) <= 1
 0 <= X(103) <= 1
 0 <= X(104) <= 1
 0 <= X(105) <= 1
 0 <= X(106) <= 1
 0 <= X(107) <= 1
 0 <= X(108) <= 1
 0 <= X(109) <= 1
 0 <= X(110) <= 1
 0 <= X(111) <= 1
 0 <= X(112) <= 1
 0 <= X(113) <= 1
 0 <= X(114) <= 1
 0 <= X(115) <= 1
 0 <= X(116) <= 1
 0 <= X(117) <= 1
 0 <= X(118) <= 1
 0 <= X(119) <= 1
 0 <= X(120) <= 1
 0 <= X(121) <= 1
 0 <= X(122) <= 1
 0 <= X(123) <= 1
 0 <= X(124) <= 1
 0 <= X(125) <= 1
 0 <= X(126) <= 1
 0 <= X(127) <= 1
 0 <= X(128) <= 1
 0 <= X(129) <= 1
 0 <= X(130) <= 1
 0 <= X(131) <= 1
 0 <= X(132) <= 1
 0 <= X(133) <= 1
 0 <= X(134) <= 1
 0 <= X(135) <= 1
 0 <= X(136) <= 1
 0 <= X(137) <= 1
 0 <= X(138) <= 1
 0 <= X(139) <= 1
 0 <= X(140) <= 1
 0 <= X(141) <= 1
 0 <= X(142) <= 1
 0 <= X(143) <= 1
 0 <= X(144) <= 1
 0 <= X(145) <= 1
 0 <= X(146) <= 1
 0 <= X(147) <= 1
 0 <= X(148) <= 1
 0 <= X(149) <= 1
 0 <= X(150) <= 1
 0 <= X(151) <= 1
 0 <= X(152) <= 1
 0 <= X(153) <= 1
 0 <= X(154) <= 1
 0 <= X(155) <= 1
 0 <= X(156) <= 1
 0 <= X(157) <= 1
 0 <= X(158) <= 1
 0 <= X(159) <= 1
 0 <= X(160) <= 1
 0 <= X(161) <= 1
 0 <= X(162) <= 1
 0 <= X(163) <= 1
 0 <= X(164) <= 1
 0 <= X(165) <= 1
 0 <= X(166) <= 1
 0 <= X(167) <= 1
 0 <= X(168) <= 1
 0 <= X(169) <= 1
 0 <= X(170) <= 1
 0 <= X(171) <= 1
 0 <= X(172) <= 1
 0 <= X(173) <= 1
 0 <= X(174) <= 1
 0 <= X(175) <= 1
 0 <= X(176) <= 1
 0 <= X(177) <= 1
 0 <= X(178) <= 1
 0 <= X(179) <= 1
 0 <= X(180) <= 1
 0 <= X(181) <= 1
 0 <= X(182) <= 1
 0 <= X(183) <= 1
 0 <= X(184) <= 1
 0 <= X(185) <= 1
 0 <= X(186) <= 1
 0 <= X(187) <= 1
 0 <= X(188) <= 1
 0 <= X(189) <= 1
 0 <= X(190) <= 1
 0 <= X(191) <= 1
 0 <= X(192) <= 1
 0 <= X(193) <= 1
 0 <= X(194) <= 1
 0 <= X(195) <= 1
 0 <= X(196) <= 1
 0 <= X(197) <= 1
 0 <= X(198) <= 1
 0 <= X(199) <= 1
 0 <= X(200) <= 1
 0 <= X(201) <= 1
Binaries
 X(1)  X(2)  X(3)  X(4)  X(5)  X(6)  X(7)  X(8)  X(9)  X(10)  X(11)  X(12) 
 X(13)  X(14)  X(15)  X(16)  X(17)  X(18)  X(19)  X(20)  X(21)  X(22)  X(23) 
 X(24)  X(25)  X(26)  X(27)  X(28)  X(29)  X(30)  X(31)  X(32)  X(33)  X(34) 
 X(35)  X(36)  X(37)  X(38)  X(39)  X(40)  X(41)  X(42)  X(43)  X(44)  X(45) 
 X(46)  X(47)  X(48)  X(49)  X(50)  X(51)  X(52)  X(53)  X(54)  X(55)  X(56) 
 X(57)  X(58)  X(59)  X(60)  X(61)  X(62)  X(63)  X(64)  X(65)  X(66)  X(67) 
 X(68)  X(69)  X(70)  X(71)  X(72)  X(73)  X(74)  X(75)  X(76)  X(77)  X(78) 
 X(79)  X(80)  X(81)  X(82)  X(83)  X(84)  X(85)  X(86)  X(87)  X(88)  X(89) 
 X(90)  X(91)  X(92)  X(93)  X(94)  X(95)  X(96)  X(97)  X(98)  X(99)  X(100) 
 X(101)  X(102)  X(103)  X(104)  X(105)  X(106)  X(107)  X(108)  X(109) 
 X(110)  X(111)  X(112)  X(113)  X(114)  X(115)  X(116)  X(117)  X(118) 
 X(119)  X(120)  X(121)  X(122)  X(123)  X(124)  X(125)  X(126)  X(127) 
 X(128)  X(129)  X(130)  X(131)  X(132)  X(133)  X(134)  X(135)  X(136) 
 X(137)  X(138)  X(139)  X(140)  X(141)  X(142)  X(143)  X(144)  X(145) 
 X(146)  X(147)  X(148)  X(149)  X(150)  X(151)  X(152)  X(153)  X(154) 
 X(155)  X(156)  X(157)  X(158)  X(159)  X(160)  X(161)  X(162)  X(163) 
 X(164)  X(165)  X(166)  X(167)  X(168)  X(169)  X(170)  X(171)  X(172) 
 X(173)  X(174)  X(175)  X(176)  X(177)  X(178)  X(179)  X(180)  X(181) 
 X(182)  X(183)  X(184)  X(185)  X(186)  X(187)  X(188)  X(189)  X(190) 
 X(191)  X(192)  X(193)  X(194)  X(195)  X(196)  X(197)  X(198)  X(199) 
 X(200)  X(201) 
End
